--- Job AirAmbulance.gms Start 07/15/20 16:48:50 31.2.0 r8ba6aed DEX-DEG x86 64bit/Mac OS X
--- Applying:
    /Applications/GAMS31.2/GAMS Terminal.app/Contents/MacOS/gmsprmun.txt
    /Users/ferris/Library/Preferences/GAMS/gamsconfig.yaml
--- GAMS Parameters defined
    Input /Users/ferris/Projects/GAMS-MIRO/AirAmbulance/AirAmbulance.gms
    PageSize 0
    ScrDir /Users/ferris/Projects/GAMS-MIRO/AirAmbulance/225a/
    SysDir /Applications/GAMS31.2/GAMS Terminal.app/Contents/MacOS/
    LogOption 3
    ErrMsg 1
    ErrorLog 99
    IDE 1
    LstTitleLeftAligned 1
    IDCGenerateJSON conf_AirAmbulance/AirAmbulance_io.json
    IDCGenerateGDX data_AirAmbulance/default.gdx
GAMS 31.2.0   Copyright (C) 1987-2020 GAMS Development. All rights reserved
Licensee: Michael C. Ferris                              S200127/0001AN-GEN
          University of Wisconsin-Madison, Computer Sciences Dept.DCE000472
          /Users/ferris/Library/Application Support/GAMS/gamslice.txt
          Evaluation license: Not for commercial or production use
--- Starting compilation
--- AirAmbulance.gms(71) 3 Mb
--- Starting execution: elapsed 0:00:00.006
--- AirAmbulance.gms(55) 4 Mb
--- Generating LP model AirAmbulance2
--- AirAmbulance.gms(56) 4 Mb
---   6 rows  21 columns  61 non-zeroes
--- Executing CPLEX: elapsed 0:00:00.010
IBM ILOG CPLEX   31.2.0 r8ba6aed Released Jun 19, 2020 DEG x86 64bit/Mac OS X 
--- GAMS/Cplex licensed for continuous and discrete problems.
Cplex 12.10.0.0
Reading data...
Starting Cplex...
Space for names approximately 0.00 Mb
Use option 'names no' to turn use of names off
Version identifier: 12.10.0.0 | 2019-11-26 | 843d4de
CPXPARAM_Advance                                 0
CPXPARAM_Simplex_Display                         2
CPXPARAM_Threads                                 1
CPXPARAM_Parallel                                1
CPXPARAM_Simplex_Limits_Iterations               2000000000
CPXPARAM_TimeLimit                               1000
CPXPARAM_Tune_TimeLimit                          200
Tried aggregator 1 time.
LP Presolve eliminated 1 rows and 1 columns.
Reduced LP has 5 rows, 20 columns, and 40 nonzeros.
Presolve time = 0.00 sec. (0.01 ticks)
Iteration      Dual Objective            In Variable           Out Variable
     1            2236.067977                 z(5.4)      balance2(5) slack
     2            4836.067977                 z(3.2)      balance2(3) slack
     3            6798.618349                 z(5.2)      balance2(4) slack
     4            7161.869060                 z(5.1)      balance2(2) slack
LP status(1): optimal
Cplex Time: 0.00sec (det. 0.02 ticks)
Optimal solution found.
Objective :        7161.869060
--- Restarting execution
--- AirAmbulance.gms(56) 2 Mb
--- Reading solution for model AirAmbulance2
--- Executing after solve: elapsed 0:00:00.260
--- AirAmbulance.gms(70) 3 Mb
--- GDX File /Users/ferris/Projects/GAMS-MIRO/AirAmbulance/data_AirAmbulance/default.gdx
*** Status: Normal completion
--- Job AirAmbulance.gms Stop 07/15/20 16:48:50 elapsed 0:00:00.262
========================
========================Warning in eval(ei, envir) :
  The alias of symbol: 'x' was selected to be overwritten. However, this symbol could not be found.
Warning in eval(ei, envir) :
  The alias of symbol: 'y' was selected to be overwritten. However, this symbol could not be found.
TRACE [2020-07-15 16:48:53] Logging facility initialised.
DEBUG [2020-07-15 16:48:53] Database connection established.
DEBUG [2020-07-15 16:48:53] Access Control initialised.
INFO [2020-07-15 16:48:53] New data: 'default.gdx' is being stored in the database. Please wait a until the import is finished.
DEBUG [2020-07-15 16:48:53] Db: Data was imported from table: '_sys_metadata_airambulance' (Db.importDataset).
DEBUG [2020-07-15 16:48:53] Db: 46 rows in table: '_sys_metadata_airambulance' were deleted. (Db.deleteRows)
DEBUG [2020-07-15 16:48:53] Db: Metadata (table: '_sys_metadata_airambulance') was written to database. (Db.writeMetadata).
DEBUG [2020-07-15 16:48:53] Db: Metadata (table: '_sys_metadata_airambulance') was added for scenario: 'default' (Scenario.writeMetadata).
DEBUG [2020-07-15 16:48:53] Db: Data was added to table: 'airambulance_assign' (Db.exportScenDataset).
DEBUG [2020-07-15 16:48:54] Db: Data was added to table: 'airambulance_numofheli' (Db.exportScenDataset).
DEBUG [2020-07-15 16:48:54] Db: Data was added to table: 'airambulance_locinfo' (Db.exportScenDataset).
DEBUG [2020-07-15 16:48:54] Db: Data was added to table: 'airambulance_d' (Db.exportScenDataset).
DEBUG [2020-07-15 16:48:54] Db: Data was added to table: 'airambulance_s' (Db.exportScenDataset).
DEBUG [2020-07-15 16:48:54] Db: Data was imported from table: '_sys_scenlocks_airambulance' (Db.importDataset).
DEBUG [2020-07-15 16:48:54] Db: ferris: Lock was added for scenario: '1' (Scenario.lock).
========================================================
DEBUG [2020-07-15 16:48:54] Scenario: '1' unlocked.
DEBUG [2020-07-15 16:48:54] Db: 1 rows in table: '_sys_scenlocks_airambulance' were deleted. (Db.deleteRows)
2020-07-15 16:48:56.579 GAMS MIRO Helper (Renderer)[14351:6716792] CoreText note: Client requested name ".AppleSymbolsFB", it will get Times-Roman rather than the intended font. All system UI font access should be through proper APIs such as CTFontCreateUIFontForLanguage() or +[NSFont systemFontOfSize:].
2020-07-15 16:48:56.579 GAMS MIRO Helper (Renderer)[14351:6716792] CoreText note: Set a breakpoint on CTFontLogSystemFontNameRequest to debug.
2020-07-15 16:48:56.580 GAMS MIRO Helper (Renderer)[14351:6716792] CoreText note: Client requested name ".AppleSymbolsFB", it will get Times-Roman rather than the intended font. All system UI font access should be through proper APIs such as CTFontCreateUIFontForLanguage() or +[NSFont systemFontOfSize:].
2020-07-15 16:48:56.581 GAMS MIRO Helper (Renderer)[14351:6716792] CoreText note: Client requested name ".AppleSymbolsFB", it will get Times-Roman rather than the intended font. All system UI font access should be through proper APIs such as CTFontCreateUIFontForLanguage() or +[NSFont systemFontOfSize:].
2020-07-15 16:48:56.581 GAMS MIRO Helper (Renderer)[14351:6716792] CoreText note: Client requested name ".AppleSymbolsFB", it will get Times-Roman rather than the intended font. All system UI font access should be through proper APIs such as CTFontCreateUIFontForLanguage() or +[NSFont systemFontOfSize:].
2020-07-15 16:48:56.581 GAMS MIRO Helper (Renderer)[14351:6716792] CoreText note: Client requested name ".AppleSymbolsFB", it will get Times-Roman rather than the intended font. All system UI font access should be through proper APIs such as CTFontCreateUIFontForLanguage() or +[NSFont systemFontOfSize:].
2020-07-15 16:48:56.581 GAMS MIRO Helper (Renderer)[14351:6716792] CoreText note: Client requested name ".AppleSymbolsFB", it will get Times-Roman rather than the intended font. All system UI font access should be through proper APIs such as CTFontCreateUIFontForLanguage() or +[NSFont systemFontOfSize:].
2020-07-15 16:48:56.583 GAMS MIRO Helper (Renderer)[14351:6716792] CoreText note: Client requested name ".AppleSymbolsFB", it will get Times-Roman rather than the intended font. All system UI font access should be through proper APIs such as CTFontCreateUIFontForLanguage() or +[NSFont systemFontOfSize:].
2020-07-15 16:48:56.583 GAMS MIRO Helper (Renderer)[14351:6716792] CoreText note: Client requested name ".AppleSymbolsFB", it will get Times-Roman rather than the intended font. All system UI font access should be through proper APIs such as CTFontCreateUIFontForLanguage() or +[NSFont systemFontOfSize:].
2020-07-15 16:48:56.583 GAMS MIRO Helper (Renderer)[14351:6716792] CoreText note: Client requested name ".AppleSymbolsFB", it will get Times-Roman rather than the intended font. All system UI font access should be through proper APIs such as CTFontCreateUIFontForLanguage() or +[NSFont systemFontOfSize:].
2020-07-15 16:48:56.583 GAMS MIRO Helper (Renderer)[14351:6716792] CoreText note: Client requested name ".AppleSymbolsFB", it will get Times-Roman rather than the intended font. All system UI font access should be through proper APIs such as CTFontCreateUIFontForLanguage() or +[NSFont systemFontOfSize:].
2020-07-15 16:48:56.584 GAMS MIRO Helper (Renderer)[14351:6716792] CoreText note: Client requested name ".AppleSymbolsFB", it will get Times-Roman rather than the intended font. All system UI font access should be through proper APIs such as CTFontCreateUIFontForLanguage() or +[NSFont systemFontOfSize:].
2020-07-15 16:48:56.584 GAMS MIRO Helper (Renderer)[14351:6716792] CoreText note: Client requested name ".AppleSymbolsFB", it will get Times-Roman rather than the intended font. All system UI font access should be through proper APIs such as CTFontCreateUIFontForLanguage() or +[NSFont systemFontOfSize:].
2020-07-15 16:48:56.584 GAMS MIRO Helper (Renderer)[14351:6716792] CoreText note: Client requested name ".AppleSymbolsFB", it will get Times-Roman rather than the intended font. All system UI font access should be through proper APIs such as CTFontCreateUIFontForLanguage() or +[NSFont systemFontOfSize:].
2020-07-15 16:48:56.584 GAMS MIRO Helper (Renderer)[14351:6716792] CoreText note: Client requested name ".AppleSymbolsFB", it will get Times-Roman rather than the intended font. All system UI font access should be through proper APIs such as CTFontCreateUIFontForLanguage() or +[NSFont systemFontOfSize:].
2020-07-15 16:48:57.018 GAMS MIRO Helper (Renderer)[14351:6716792] CoreText note: Client requested name ".AppleSymbolsFB", it will get Times-Roman rather than the intended font. All system UI font access should be through proper APIs such as CTFontCreateUIFontForLanguage() or +[NSFont systemFontOfSize:].
2020-07-15 16:48:57.018 GAMS MIRO Helper (Renderer)[14351:6716792] CoreText note: Client requested name ".AppleSymbolsFB", it will get Times-Roman rather than the intended font. All system UI font access should be through proper APIs such as CTFontCreateUIFontForLanguage() or +[NSFont systemFontOfSize:].
2020-07-15 16:48:57.018 GAMS MIRO Helper (Renderer)[14351:6716792] CoreText note: Client requested name ".AppleSymbolsFB", it will get Times-Roman rather than the intended font. All system UI font access should be through proper APIs such as CTFontCreateUIFontForLanguage() or +[NSFont systemFontOfSize:].
2020-07-15 16:48:57.018 GAMS MIRO Helper (Renderer)[14351:6716792] CoreText note: Client requested name ".AppleSymbolsFB", it will get Times-Roman rather than the intended font. All system UI font access should be through proper APIs such as CTFontCreateUIFontForLanguage() or +[NSFont systemFontOfSize:].
2020-07-15 16:48:57.018 GAMS MIRO Helper (Renderer)[14351:6716792] CoreText note: Client requested name ".AppleSymbolsFB", it will get Times-Roman rather than the intended font. All system UI font access should be through proper APIs such as CTFontCreateUIFontForLanguage() or +[NSFont systemFontOfSize:].
2020-07-15 16:48:57.019 GAMS MIRO Helper (Renderer)[14351:6716792] CoreText note: Client requested name ".AppleSymbolsFB", it will get Times-Roman rather than the intended font. All system UI font access should be through proper APIs such as CTFontCreateUIFontForLanguage() or +[NSFont systemFontOfSize:].
2020-07-15 16:48:57.019 GAMS MIRO Helper (Renderer)[14351:6716792] CoreText note: Client requested name ".AppleSymbolsFB", it will get Times-Roman rather than the intended font. All system UI font access should be through proper APIs such as CTFontCreateUIFontForLanguage() or +[NSFont systemFontOfSize:].
2020-07-15 16:48:57.019 GAMS MIRO Helper (Renderer)[14351:6716792] CoreText note: Client requested name ".AppleSymbolsFB", it will get Times-Roman rather than the intended font. All system UI font access should be through proper APIs such as CTFontCreateUIFontForLanguage() or +[NSFont systemFontOfSize:].
2020-07-15 16:48:57.019 GAMS MIRO Helper (Renderer)[14351:6716792] CoreText note: Client requested name ".AppleSymbolsFB", it will get Times-Roman rather than the intended font. All system UI font access should be through proper APIs such as CTFontCreateUIFontForLanguage() or +[NSFont systemFontOfSize:].
2020-07-15 16:48:57.019 GAMS MIRO Helper (Renderer)[14351:6716792] CoreText note: Client requested name ".AppleSymbolsFB", it will get Times-Roman rather than the intended font. All system UI font access should be through proper APIs such as CTFontCreateUIFontForLanguage() or +[NSFont systemFontOfSize:].
2020-07-15 16:48:57.019 GAMS MIRO Helper (Renderer)[14351:6716792] CoreText note: Client requested name ".AppleSymbolsFB", it will get Times-Roman rather than the intended font. All system UI font access should be through proper APIs such as CTFontCreateUIFontForLanguage() or +[NSFont systemFontOfSize:].
2020-07-15 16:48:57.020 GAMS MIRO Helper (Renderer)[14351:6716792] CoreText note: Client requested name ".AppleSymbolsFB", it will get Times-Roman rather than the intended font. All system UI font access should be through proper APIs such as CTFontCreateUIFontForLanguage() or +[NSFont systemFontOfSize:].
2020-07-15 16:48:57.020 GAMS MIRO Helper (Renderer)[14351:6716792] CoreText note: Client requested name ".AppleSymbolsFB", it will get Times-Roman rather than the intended font. All system UI font access should be through proper APIs such as CTFontCreateUIFontForLanguage() or +[NSFont systemFontOfSize:].
2020-07-15 16:48:57.020 GAMS MIRO Helper (Renderer)[14351:6716792] CoreText note: Client requested name ".AppleSymbolsFB", it will get Times-Roman rather than the intended font. All system UI font access should be through proper APIs such as CTFontCreateUIFontForLanguage() or +[NSFont systemFontOfSize:].
2020-07-15 16:48:57.034 GAMS MIRO Helper (Renderer)[14351:6716792] CoreText note: Client requested name ".AppleSymbolsFB", it will get Times-Roman rather than the intended font. All system UI font access should be through proper APIs such as CTFontCreateUIFontForLanguage() or +[NSFont systemFontOfSize:].
2020-07-15 16:48:57.035 GAMS MIRO Helper (Renderer)[14351:6716792] CoreText note: Client requested name ".AppleSymbolsFB", it will get Times-Roman rather than the intended font. All system UI font access should be through proper APIs such as CTFontCreateUIFontForLanguage() or +[NSFont systemFontOfSize:].
2020-07-15 16:48:57.035 GAMS MIRO Helper (Renderer)[14351:6716792] CoreText note: Client requested name ".AppleSymbolsFB", it will get Times-Roman rather than the intended font. All system UI font access should be through proper APIs such as CTFontCreateUIFontForLanguage() or +[NSFont systemFontOfSize:].
2020-07-15 16:48:57.035 GAMS MIRO Helper (Renderer)[14351:6716792] CoreText note: Client requested name ".AppleSymbolsFB", it will get Times-Roman rather than the intended font. All system UI font access should be through proper APIs such as CTFontCreateUIFontForLanguage() or +[NSFont systemFontOfSize:].
2020-07-15 16:48:57.035 GAMS MIRO Helper (Renderer)[14351:6716792] CoreText note: Client requested name ".AppleSymbolsFB", it will get Times-Roman rather than the intended font. All system UI font access should be through proper APIs such as CTFontCreateUIFontForLanguage() or +[NSFont systemFontOfSize:].
2020-07-15 16:48:57.035 GAMS MIRO Helper (Renderer)[14351:6716792] CoreText note: Client requested name ".AppleSymbolsFB", it will get Times-Roman rather than the intended font. All system UI font access should be through proper APIs such as CTFontCreateUIFontForLanguage() or +[NSFont systemFontOfSize:].
2020-07-15 16:48:57.035 GAMS MIRO Helper (Renderer)[14351:6716792] CoreText note: Client requested name ".AppleSymbolsFB", it will get Times-Roman rather than the intended font. All system UI font access should be through proper APIs such as CTFontCreateUIFontForLanguage() or +[NSFont systemFontOfSize:].
2020-07-15 16:48:57.036 GAMS MIRO Helper (Renderer)[14351:6716792] CoreText note: Client requested name ".AppleSymbolsFB", it will get Times-Roman rather than the intended font. All system UI font access should be through proper APIs such as CTFontCreateUIFontForLanguage() or +[NSFont systemFontOfSize:].
2020-07-15 16:48:57.036 GAMS MIRO Helper (Renderer)[14351:6716792] CoreText note: Client requested name ".AppleSymbolsFB", it will get Times-Roman rather than the intended font. All system UI font access should be through proper APIs such as CTFontCreateUIFontForLanguage() or +[NSFont systemFontOfSize:].
2020-07-15 16:48:57.036 GAMS MIRO Helper (Renderer)[14351:6716792] CoreText note: Client requested name ".AppleSymbolsFB", it will get Times-Roman rather than the intended font. All system UI font access should be through proper APIs such as CTFontCreateUIFontForLanguage() or +[NSFont systemFontOfSize:].
2020-07-15 16:48:57.036 GAMS MIRO Helper (Renderer)[14351:6716792] CoreText note: Client requested name ".AppleSymbolsFB", it will get Times-Roman rather than the intended font. All system UI font access should be through proper APIs such as CTFontCreateUIFontForLanguage() or +[NSFont systemFontOfSize:].
2020-07-15 16:48:57.036 GAMS MIRO Helper (Renderer)[14351:6716792] CoreText note: Client requested name ".AppleSymbolsFB", it will get Times-Roman rather than the intended font. All system UI font access should be through proper APIs such as CTFontCreateUIFontForLanguage() or +[NSFont systemFontOfSize:].
2020-07-15 16:48:57.036 GAMS MIRO Helper (Renderer)[14351:6716792] CoreText note: Client requested name ".AppleSymbolsFB", it will get Times-Roman rather than the intended font. All system UI font access should be through proper APIs such as CTFontCreateUIFontForLanguage() or +[NSFont systemFontOfSize:].
2020-07-15 16:48:57.037 GAMS MIRO Helper (Renderer)[14351:6716792] CoreText note: Client requested name ".AppleSymbolsFB", it will get Times-Roman rather than the intended font. All system UI font access should be through proper APIs such as CTFontCreateUIFontForLanguage() or +[NSFont systemFontOfSize:].
INFO [2020-07-15 16:48:57] Session started (model: 'airambulance', user: 'ferris', workdir: '/Users/ferris/Projects/GAMS-MIRO/AirAmbulance').
DEBUG [2020-07-15 16:48:57] Working directory was created: '/Users/ferris/Projects/GAMS-MIRO/AirAmbulance'.
DEBUG [2020-07-15 16:48:57] Db: Data was imported from table: '_sys_metadata_airambulance' (Db.importDataset).
DEBUG [2020-07-15 16:48:57] Sidebar menu item: 'inputData' selected.
DEBUG [2020-07-15 16:48:57] Loading and rendering scenarios: '1'.
DEBUG [2020-07-15 16:48:57] Db: Data was imported from table: 'airambulance_assign' (Db.importDataset).
DEBUG [2020-07-15 16:48:57] Db: Data was imported from table: 'airambulance_numofheli' (Db.importDataset).
DEBUG [2020-07-15 16:48:57] Db: Data was imported from table: 'airambulance_locinfo' (Db.importDataset).
DEBUG [2020-07-15 16:48:57] Db: Data was imported from table: 'airambulance_d' (Db.importDataset).
DEBUG [2020-07-15 16:48:57] Db: Data was imported from table: 'airambulance_s' (Db.importDataset).
DEBUG [2020-07-15 16:48:57] Db: A table named: '_sys_scripts_airambulance' does not exist in the database (Db.importDataset).
DEBUG [2020-07-15 16:48:57] Scenario: 'New Scenario' closed.
DEBUG [2020-07-15 16:48:58] Db: Data was imported from table: '_sys_metadata_airambulance' (Db.importDataset).
DEBUG [2020-07-15 16:48:58] Db: Data was imported from table: '_sys_scenlocks_airambulance' (Db.importDataset).
DEBUG [2020-07-15 16:48:58] Db: ferris: Lock was added for scenario: '1' (Scenario.lock).
DEBUG [2020-07-15 16:48:58] Dataset: locinfo loaded successfully (mode: scen, overwrite: FALSE)
DEBUG [2020-07-15 16:48:58] Dataset: d loaded successfully (mode: scen, overwrite: FALSE)
DEBUG [2020-07-15 16:48:58] Dataset: s loaded successfully (mode: scen, overwrite: FALSE)
DEBUG [2020-07-15 16:48:58] Scenario: '1' was loaded into UI
DEBUG [2020-07-15 16:49:15] Solve button clicked (model: 'airambulance').
TRACE [2020-07-15 16:49:15] Dataset: Coordinates of locations saved in dataTmp.
TRACE [2020-07-15 16:49:15] Dataset: Projected demand saved in dataTmp.
TRACE [2020-07-15 16:49:15] Dataset: Units currently assigned saved in dataTmp.
DEBUG [2020-07-15 16:49:15] Db: A table named: '_sys_attach_airambulance' does not exist in the database (Db.importDataset).
DEBUG [2020-07-15 16:49:16] Sidebar menu item: 'gamsinter' selected.
DEBUG [2020-07-15 16:49:18] Db: A table named: '_sys_attach_airambulance' does not exist in the database (Db.importDataset).
DEBUG [2020-07-15 16:49:18] Sidebar menu item: 'outputData' selected.
DEBUG [2020-07-15 16:49:48] Table view for model output in sheet(s): 2 activated.
DEBUG [2020-07-15 16:50:04] Table view for model output in sheet(s): 2 activated.
DEBUG [2020-07-15 16:50:23] Sidebar menu item: 'inputData' selected.
2020-07-15 16:50:30.169 GAMS MIRO Helper (Renderer)[14351:6716792] CoreText note: Client requested name ".AppleSymbolsFB", it will get Times-Roman rather than the intended font. All system UI font access should be through proper APIs such as CTFontCreateUIFontForLanguage() or +[NSFont systemFontOfSize:].
2020-07-15 16:50:30.169 GAMS MIRO Helper (Renderer)[14351:6716792] CoreText note: Client requested name ".AppleSymbolsFB", it will get Times-Roman rather than the intended font. All system UI font access should be through proper APIs such as CTFontCreateUIFontForLanguage() or +[NSFont systemFontOfSize:].
2020-07-15 16:50:30.169 GAMS MIRO Helper (Renderer)[14351:6716792] CoreText note: Client requested name ".AppleSymbolsFB", it will get Times-Roman rather than the intended font. All system UI font access should be through proper APIs such as CTFontCreateUIFontForLanguage() or +[NSFont systemFontOfSize:].
2020-07-15 16:50:30.170 GAMS MIRO Helper (Renderer)[14351:6716792] CoreText note: Client requested name ".AppleSymbolsFB", it will get Times-Roman rather than the intended font. All system UI font access should be through proper APIs such as CTFontCreateUIFontForLanguage() or +[NSFont systemFontOfSize:].
2020-07-15 16:50:30.170 GAMS MIRO Helper (Renderer)[14351:6716792] CoreText note: Client requested name ".AppleSymbolsFB", it will get Times-Roman rather than the intended font. All system UI font access should be through proper APIs such as CTFontCreateUIFontForLanguage() or +[NSFont systemFontOfSize:].
2020-07-15 16:50:30.170 GAMS MIRO Helper (Renderer)[14351:6716792] CoreText note: Client requested name ".AppleSymbolsFB", it will get Times-Roman rather than the intended font. All system UI font access should be through proper APIs such as CTFontCreateUIFontForLanguage() or +[NSFont systemFontOfSize:].
2020-07-15 16:50:30.170 GAMS MIRO Helper (Renderer)[14351:6716792] CoreText note: Client requested name ".AppleSymbolsFB", it will get Times-Roman rather than the intended font. All system UI font access should be through proper APIs such as CTFontCreateUIFontForLanguage() or +[NSFont systemFontOfSize:].
2020-07-15 16:50:30.171 GAMS MIRO Helper (Renderer)[14351:6716792] CoreText note: Client requested name ".AppleSymbolsFB", it will get Times-Roman rather than the intended font. All system UI font access should be through proper APIs such as CTFontCreateUIFontForLanguage() or +[NSFont systemFontOfSize:].
2020-07-15 16:50:30.171 GAMS MIRO Helper (Renderer)[14351:6716792] CoreText note: Client requested name ".AppleSymbolsFB", it will get Times-Roman rather than the intended font. All system UI font access should be through proper APIs such as CTFontCreateUIFontForLanguage() or +[NSFont systemFontOfSize:].
2020-07-15 16:50:30.171 GAMS MIRO Helper (Renderer)[14351:6716792] CoreText note: Client requested name ".AppleSymbolsFB", it will get Times-Roman rather than the intended font. All system UI font access should be through proper APIs such as CTFontCreateUIFontForLanguage() or +[NSFont systemFontOfSize:].
2020-07-15 16:50:30.171 GAMS MIRO Helper (Renderer)[14351:6716792] CoreText note: Client requested name ".AppleSymbolsFB", it will get Times-Roman rather than the intended font. All system UI font access should be through proper APIs such as CTFontCreateUIFontForLanguage() or +[NSFont systemFontOfSize:].
2020-07-15 16:50:30.171 GAMS MIRO Helper (Renderer)[14351:6716792] CoreText note: Client requested name ".AppleSymbolsFB", it will get Times-Roman rather than the intended font. All system UI font access should be through proper APIs such as CTFontCreateUIFontForLanguage() or +[NSFont systemFontOfSize:].
2020-07-15 16:50:30.172 GAMS MIRO Helper (Renderer)[14351:6716792] CoreText note: Client requested name ".AppleSymbolsFB", it will get Times-Roman rather than the intended font. All system UI font access should be through proper APIs such as CTFontCreateUIFontForLanguage() or +[NSFont systemFontOfSize:].
2020-07-15 16:50:30.172 GAMS MIRO Helper (Renderer)[14351:6716792] CoreText note: Client requested name ".AppleSymbolsFB", it will get Times-Roman rather than the intended font. All system UI font access should be through proper APIs such as CTFontCreateUIFontForLanguage() or +[NSFont systemFontOfSize:].
